10J3M/DAT/10J3MUTL-10.dat
10 3
38.0244 38.0244
46.0613 46.0613
41.7844 41.7844
22.181 22.181
9.1786 9.1786
23.8766 23.8766
20.492 20.492
38.3271 38.3271
49.7734 49.7734
6.2502 6.2502
73.9873