10J3M/SOL/10J3MUTL-10.sol
solution status: optimal solution found
objective value:                              73.9873
x#1#2                               0.804396650571738 	(obj:0)
x#1#3                               0.195603349428262 	(obj:0)
x#2#2                               0.474315748795627 	(obj:0)
x#3#1                               0.703851198054776 	(obj:0)
x#3#2                               0.296148801945224 	(obj:0)
x#4#3                                               1 	(obj:0)
x#5#2                                               1 	(obj:0)
x#6#3                                               1 	(obj:0)
x#7#3                                               1 	(obj:0)
x#8#1                                               1 	(obj:0)
x#10#1                                              1 	(obj:0)
z                                             73.9873 	(obj:1)
